51 6
10 10 10 11 10 10
1 0 0 0 0 0 0 3 2 3 4
2 5 0 0 10 0 6 3 5 6 7
1 0 0 2 4 5 0 3 6 7 8
7 0 0 0 6 6 0 2 51 8
6 3 0 0 3 0 3 4 9 10 11 12
7 0 0 1 9 10 0 3 10 11 12
5 1 0 8 6 8 2 3 9 10 12
4 0 3 9 0 0 3 2 10 11
7 0 8 0 0 4 0 4 13 14 15 16
8 7 5 0 0 0 0 4 13 14 15 16
4 0 10 3 7 4 0 4 13 14 15 16
8 9 0 8 2 0 0 4 13 14 15 16
6 0 4 0 1 0 0 3 17 18 19
1 4 0 0 2 0 10 4 17 18 19 20
10 0 0 6 0 0 3 4 17 18 19 20
4 2 9 0 0 0 0 4 17 18 19 20
6 6 5 3 5 6 7 4 21 22 23 24
8 0 6 5 0 7 8 4 21 22 23 24
7 0 3 10 0 0 0 3 21 22 23
6 1 0 4 5 0 2 4 21 22 23 24
8 0 6 1 10 6 0 4 25 26 27 28
8 1 0 10 4 0 0 4 25 26 27 28
7 8 3 4 0 4 0 4 25 26 27 28
8 0 6 0 10 6 3 3 25 26 27
8 7 0 1 8 7 0 3 29 30 31
5 2 0 9 9 9 0 4 29 30 31 32
10 6 0 5 0 0 3 3 29 30 31
3 0 0 10 8 5 0 2 29 31
1 0 0 0 0 5 9 4 33 34 35 36
7 0 0 0 0 9 0 3 34 35 36
5 5 0 0 4 1 0 4 33 34 35 36
3 0 5 0 7 1 5 4 33 34 35 36
3 4 8 9 10 0 0 4 37 38 39 40
9 0 0 9 0 0 0 3 37 39 40
3 10 9 0 5 0 8 3 38 39 40
3 4 4 7 0 0 0 2 39 40
5 0 0 9 0 0 0 4 41 42 43 44
9 10 0 0 10 0 8 4 41 42 43 44
5 0 1 0 6 0 0 3 41 43 44
9 6 0 0 0 5 2 3 41 43 44
1 0 5 3 9 8 0 4 45 46 47 48
9 6 0 0 0 0 10 4 45 46 47 48
10 3 8 0 3 0 2 3 46 47 48
1 8 0 0 4 9 10 4 45 46 47 48
8 8 0 10 0 9 6 1 49
2 5 0 0 0 0 5 1 49
7 3 6 0 4 0 5 1 49
8 0 5 0 2 0 0 2 49 50
7 0 0 3 0 9 0 1 51
6 0 2 0 0 7 0 1 51
0 0 0 0 0 0 0 0
